s NOT SAT
s Solve Time 0.0268s
s Deduction Time 0.0219s
s BackTrack Times 0
s Split Times 0
v  0
s NOT SAT
s Solve Time 0.0208s
s Deduction Time 0.0184s
s BackTrack Times 0
s Split Times 0
v  0
s NOT SAT
s Solve Time 0.0191s
s Deduction Time 0.0168s
s BackTrack Times 0
s Split Times 0
v  0
s NOT SAT
s Solve Time 0.016s
s Deduction Time 0.0141s
s BackTrack Times 0
s Split Times 0
v  0
s NOT SAT
s Solve Time 0.0151s
s Deduction Time 0.0135s
s BackTrack Times 0
s Split Times 0
v  0
s SAT
s Solve Time 0.0116s
s Deduction Time 0.0072s
s BackTrack Times 0
s Split Times 0
v -111 -112 -113 114 121 -122 -123 -124 -131 132 -133 -134 -141 -142 143 -144 -211 212 -213 -214 -221 -222 223 -224 -231 -232 -233 234 241 -242 -243 -244 311 -312 -313 -314 -321 -322 -323 324 -331 -332 333 -334 -341 342 -343 -344 -411 -412 413 -414 -421 422 -423 -424 431 -432 -433 -434 -441 -442 -443 444 0
s SAT
s Solve Time 0.0109s
s Deduction Time 0.0067s
s BackTrack Times 0
s Split Times 0
v 111 -112 -113 -114 -121 122 -123 -124 -131 -132 133 -134 -141 -142 -143 144 -211 -212 213 -214 -221 -222 -223 224 231 -232 -233 -234 -241 242 -243 -244 -311 312 -313 -314 -321 -322 323 -324 -331 -332 -333 334 341 -342 -343 -344 -411 -412 -413 414 421 -422 -423 -424 -431 432 -433 -434 -441 -442 443 -444 0
s SAT
s Solve Time 0.0093s
s Deduction Time 0.0066s
s BackTrack Times 0
s Split Times 0
v -111 -112 113 -114 121 -122 -123 -124 -131 132 -133 -134 -141 -142 -143 144 -211 -212 -213 214 -221 222 -223 -224 231 -232 -233 -234 -241 -242 243 -244 311 -312 -313 -314 -321 -322 323 -324 -331 -332 -333 334 -341 342 -343 -344 -411 412 -413 -414 -421 -422 -423 424 -431 -432 433 -434 441 -442 -443 -444 0
s SAT
s Solve Time 0.0085s
s Deduction Time 0.0062s
s BackTrack Times 0
s Split Times 0
v -111 112 -113 -114 -121 -122 123 -124 -131 -132 -133 134 141 -142 -143 -144 -211 -212 -213 214 221 -222 -223 -224 -231 232 -233 -234 -241 -242 243 -244 311 -312 -313 -314 -321 -322 -323 324 -331 -332 333 -334 -341 342 -343 -344 -411 -412 413 -414 -421 422 -423 -424 431 -432 -433 -434 -441 -442 -443 444 0
s SAT
s Solve Time 0.0082s
s Deduction Time 0.0059s
s BackTrack Times 0
s Split Times 0
v 111 -112 -113 -114 -121 -122 -123 124 -131 -132 133 -134 -141 142 -143 -144 -211 -212 213 -214 -221 222 -223 -224 231 -232 -233 -234 -241 -242 -243 244 -311 -312 -313 314 321 -322 -323 -324 -331 332 -333 -334 -341 -342 343 -344 -411 412 -413 -414 -421 -422 423 -424 -431 -432 -433 434 441 -442 -443 -444 0
s SAT
s Solve Time 0.0128s
s Deduction Time 0.0084s
s BackTrack Times 0
s Split Times 1
v -111 -112 -113 114 121 -122 -123 -124 -131 132 -133 -134 -141 -142 143 -144 -211 212 -213 -214 -221 -222 223 -224 -231 -232 -233 234 241 -242 -243 -244 311 -312 -313 -314 -321 322 -323 -324 -331 -332 333 -334 -341 -342 -343 344 -411 -412 413 -414 -421 -422 -423 424 431 -432 -433 -434 -441 442 -443 -444 0
s SAT
s Solve Time 0.0163s
s Deduction Time 0.0133s
s BackTrack Times 0
s Split Times 0
v 111 -112 -113 -114 -121 122 -123 -124 -131 -132 133 -134 -141 -142 -143 144 -211 -212 213 -214 -221 -222 -223 224 231 -232 -233 -234 -241 242 -243 -244 -311 312 -313 -314 -321 -322 323 -324 -331 -332 -333 334 341 -342 -343 -344 -411 -412 -413 414 421 -422 -423 -424 -431 432 -433 -434 -441 -442 443 -444 0
s SAT
s Solve Time 0.0091s
s Deduction Time 0.0065s
s BackTrack Times 0
s Split Times 1
v -111 -112 113 -114 121 -122 -123 -124 -131 132 -133 -134 -141 -142 -143 144 -211 -212 -213 214 -221 222 -223 -224 231 -232 -233 -234 -241 -242 243 -244 311 -312 -313 -314 -321 -322 323 -324 -331 -332 -333 334 -341 342 -343 -344 -411 412 -413 -414 -421 -422 -423 424 -431 -432 433 -434 441 -442 -443 -444 0
s SAT
s Solve Time 0.0088s
s Deduction Time 0.0063s
s BackTrack Times 0
s Split Times 0
v -111 112 -113 -114 -121 -122 123 -124 -131 -132 -133 134 141 -142 -143 -144 -211 -212 -213 214 221 -222 -223 -224 -231 232 -233 -234 -241 -242 243 -244 311 -312 -313 -314 -321 -322 -323 324 -331 -332 333 -334 -341 342 -343 -344 -411 -412 413 -414 -421 422 -423 -424 431 -432 -433 -434 -441 -442 -443 444 0
s SAT
s Solve Time 0.0087s
s Deduction Time 0.0061s
s BackTrack Times 0
s Split Times 2
v 111 -112 -113 -114 -121 -122 -123 124 -131 -132 133 -134 -141 142 -143 -144 -211 -212 213 -214 -221 222 -223 -224 231 -232 -233 -234 -241 -242 -243 244 -311 -312 -313 314 321 -322 -323 -324 -331 332 -333 -334 -341 -342 343 -344 -411 412 -413 -414 -421 -422 423 -424 -431 -432 -433 434 441 -442 -443 -444 0
s SAT
s Solve Time 0.0156s
s Deduction Time 0.0077s
s BackTrack Times 0
s Split Times 1
v -111 -112 -113 114 121 -122 -123 -124 -131 132 -133 -134 -141 -142 143 -144 -211 212 -213 -214 -221 -222 223 -224 -231 -232 -233 234 241 -242 -243 -244 311 -312 -313 -314 -321 322 -323 -324 -331 -332 333 -334 -341 -342 -343 344 -411 -412 413 -414 -421 -422 -423 424 431 -432 -433 -434 -441 442 -443 -444 0
s SAT
s Solve Time 0.014s
s Deduction Time 0.0076s
s BackTrack Times 0
s Split Times 0
v 111 -112 -113 -114 -121 122 -123 -124 -131 -132 133 -134 -141 -142 -143 144 -211 -212 213 -214 -221 -222 -223 224 231 -232 -233 -234 -241 242 -243 -244 -311 312 -313 -314 -321 -322 323 -324 -331 -332 -333 334 341 -342 -343 -344 -411 -412 -413 414 421 -422 -423 -424 -431 432 -433 -434 -441 -442 443 -444 0
s SAT
s Solve Time 0.0116s
s Deduction Time 0.0069s
s BackTrack Times 0
s Split Times 1
v -111 -112 113 -114 121 -122 -123 -124 -131 132 -133 -134 -141 -142 -143 144 -211 212 -213 -214 -221 -222 -223 224 231 -232 -233 -234 -241 -242 243 -244 311 -312 -313 -314 -321 -322 323 -324 -331 -332 -333 334 -341 342 -343 -344 -411 -412 -413 414 -421 422 -423 -424 -431 -432 433 -434 441 -442 -443 -444 0
s SAT
s Solve Time 0.011s
s Deduction Time 0.0066s
s BackTrack Times 0
s Split Times 0
v -111 112 -113 -114 -121 -122 123 -124 -131 -132 -133 134 141 -142 -143 -144 -211 -212 -213 214 221 -222 -223 -224 -231 232 -233 -234 -241 -242 243 -244 311 -312 -313 -314 -321 -322 -323 324 -331 -332 333 -334 -341 342 -343 -344 -411 -412 413 -414 -421 422 -423 -424 431 -432 -433 -434 -441 -442 -443 444 0
s SAT
s Solve Time 0.0098s
s Deduction Time 0.0057s
s BackTrack Times 0
s Split Times 1
v 111 -112 -113 -114 -121 -122 -123 124 -131 -132 133 -134 -141 142 -143 -144 -211 -212 213 -214 -221 222 -223 -224 231 -232 -233 -234 -241 -242 -243 244 -311 -312 -313 314 -321 -322 323 -324 -331 332 -333 -334 341 -342 -343 -344 -411 412 -413 -414 421 -422 -423 -424 -431 -432 -433 434 -441 -442 443 -444 0
s SAT
s Solve Time 0.016s
s Deduction Time 0.0077s
s BackTrack Times 0
s Split Times 1
v -111 -112 -113 114 121 -122 -123 -124 -131 132 -133 -134 -141 -142 143 -144 -211 212 -213 -214 -221 -222 223 -224 -231 -232 -233 234 241 -242 -243 -244 311 -312 -313 -314 -321 -322 -323 324 -331 -332 333 -334 -341 342 -343 -344 -411 -412 413 -414 -421 422 -423 -424 431 -432 -433 -434 -441 -442 -443 444 0
s SAT
s Solve Time 0.0167s
s Deduction Time 0.0076s
s BackTrack Times 0
s Split Times 0
v 111 -112 -113 -114 -121 122 -123 -124 -131 -132 133 -134 -141 -142 -143 144 -211 -212 213 -214 -221 -222 -223 224 231 -232 -233 -234 -241 242 -243 -244 -311 312 -313 -314 -321 -322 323 -324 -331 -332 -333 334 341 -342 -343 -344 -411 -412 -413 414 421 -422 -423 -424 -431 432 -433 -434 -441 -442 443 -444 0
s SAT
s Solve Time 0.0118s
s Deduction Time 0.0069s
s BackTrack Times 0
s Split Times 1
v -111 -112 113 -114 121 -122 -123 -124 -131 132 -133 -134 -141 -142 -143 144 -211 212 -213 -214 -221 -222 -223 224 231 -232 -233 -234 -241 -242 243 -244 311 -312 -313 -314 -321 -322 323 -324 -331 -332 -333 334 -341 342 -343 -344 -411 -412 -413 414 -421 422 -423 -424 -431 -432 433 -434 441 -442 -443 -444 0
s SAT
s Solve Time 0.0112s
s Deduction Time 0.0067s
s BackTrack Times 0
s Split Times 0
v -111 112 -113 -114 -121 -122 123 -124 -131 -132 -133 134 141 -142 -143 -144 -211 -212 -213 214 221 -222 -223 -224 -231 232 -233 -234 -241 -242 243 -244 311 -312 -313 -314 -321 -322 -323 324 -331 -332 333 -334 -341 342 -343 -344 -411 -412 413 -414 -421 422 -423 -424 431 -432 -433 -434 -441 -442 -443 444 0
s SAT
s Solve Time 0.0104s
s Deduction Time 0.0059s
s BackTrack Times 0
s Split Times 2
v 111 -112 -113 -114 -121 -122 -123 124 -131 -132 133 -134 -141 142 -143 -144 -211 212 -213 -214 -221 -222 223 -224 231 -232 -233 -234 -241 -242 -243 244 -311 -312 -313 314 321 -322 -323 -324 -331 332 -333 -334 -341 -342 343 -344 -411 -412 413 -414 -421 422 -423 -424 -431 -432 -433 434 441 -442 -443 -444 0
s SAT
s Solve Time 0.044s
s Deduction Time 0.0317s
s BackTrack Times 0
s Split Times 3
v -111 -112 113 -114 -121 -122 -123 124 131 -132 -133 -134 -141 142 -143 -144 211 -212 -213 -214 -221 222 -223 -224 -231 -232 233 -234 -241 -242 -243 244 -311 -312 -313 314 -321 -322 323 -324 -331 332 -333 -334 341 -342 -343 -344 -411 412 -413 -414 421 -422 -423 -424 -431 -432 -433 434 -441 -442 443 -444 0
s SAT
s Solve Time 0.028s
s Deduction Time 0.0189s
s BackTrack Times 0
s Split Times 3
v -111 -112 113 -114 -121 -122 -123 124 131 -132 -133 -134 -141 142 -143 -144 211 -212 -213 -214 -221 222 -223 -224 -231 -232 233 -234 -241 -242 -243 244 -311 -312 -313 314 -321 -322 323 -324 -331 332 -333 -334 341 -342 -343 -344 -411 412 -413 -414 421 -422 -423 -424 -431 -432 -433 434 -441 -442 443 -444 0
s SAT
s Solve Time 0.0287s
s Deduction Time 0.0224s
s BackTrack Times 0
s Split Times 5
v -111 -112 113 -114 -121 -122 -123 124 131 -132 -133 -134 -141 142 -143 -144 -211 212 -213 -214 221 -222 -223 -224 -231 -232 -233 234 -241 -242 243 -244 -311 -312 -313 314 -321 -322 323 -324 -331 332 -333 -334 341 -342 -343 -344 411 -412 -413 -414 -421 422 -423 -424 -431 -432 433 -434 -441 -442 -443 444 0
